15	2	2
3837	3837	
393	986	1079	
750	572	587	
302	623	639	
1	88	90	
173	67	68	
982	650	678	
555	366	386	
621	474	503	
754	638	682	
970	667	707	
277	832	869	
190	225	235	
771	833	881	
485	83	83	
840	570	621	
